""
1
1
5
0.10000000000000000000e1 0.10000000000000000000e1 0.10000000000000000000e1 0.10000000000000000000e1 0.10000000000000000000e1
0 1 1 1 -0.10000000000000000000e1
0 1 2 2 -0.10000000000000000000e1
0 1 3 3 0.10000000000000000000e1
0 1 4 4 0.10000000000000000000e1
1 1 1 1 -0.10000000000000000000e1
1 1 2 2 0.0
1 1 3 3 0.10000000000000000000e1
1 1 4 4 0.0
1 1 5 5 0.10000000000000000000e1
